\* Source Pyomo model name=unknown *\

min 
x13:
+5950 x10
+5520 x11
+5750 x12
+1500 x7
+9000 x8
+4000 x9

s.t.

c_l_x14_:
+0.93000000000000005 x1
+0.76000000000000001 x2
+0.73999999999999999 x3
+0.65000000000000002 x4
+0.71999999999999997 x5
+0.68000000000000005 x6
>= 65

c_e_x15_:
+0.050000000000000003 x1
+0.13 x2
+0.11 x3
+0.16 x4
+0.059999999999999998 x5
+0.23000000000000001 x6
= 18

c_e_x16_:
+0.11 x2
+0.12 x3
+0.14000000000000001 x4
+0.20000000000000001 x5
+0.080000000000000002 x6
= 10

c_u_x17_:
+0.02 x1
+0.029999999999999999 x3
+0.050000000000000003 x4
+0.02 x5
+0.01 x6
<= 1

c_u_x18_:
+1 x1
+1 x2
+1 x3
+1 x4
+1 x5
+1 x6
<= 100

c_u_x19_:
+1 x1
-30 x7
<= 0

c_u_x20_:
+1 x2
-90 x8
<= 0

c_u_x21_:
+1 x3
-50 x9
<= 0

c_u_x22_:
-70 x10
+1 x4
<= 0

c_u_x23_:
-60 x11
+1 x5
<= 0

c_u_x24_:
-50 x12
+1 x6
<= 0

c_e_ONE_VAR_CONSTANT: 
ONE_VAR_CONSTANT = 1.0

bounds
   0 <= x1 <= 30
   0 <= x2 <= 90
   0 <= x3 <= 50
   0 <= x4 <= 70
   0 <= x5 <= 60
   0 <= x6 <= 50
   0 <= x7 <= 1
   0 <= x8 <= 1
   0 <= x9 <= 1
   0 <= x10 <= 1
   0 <= x11 <= 1
   0 <= x12 <= 1
binary
  x7
  x8
  x9
  x10
  x11
  x12
end
